NAME : senseval3_subTrees1.gtsp.pid15670.gtsp.26843550.tour
COMMENT : Length = 26843550
COMMENT : Found by LKH [Keld Helsgaun] Thu Mar  1 15:50:14 2018
TYPE : TOUR
DIMENSION : 37
TOUR_SECTION
1
2
3
4
5
6
9
8
12
10
11
37
19
20
21
22
23
24
25
26
27
28
29
30
31
32
33
34
35
36
17
18
13
14
15
16
7
-1
EOF
